NAME: GRASP_29_7
TYPE: TSP
COMMENT: line_29_7
DIMENSION: 29
EDGE_WEIGHT_TYPE: EUC_2D
NODE_COORD_SECTION
1 4315 835
2 4414 3990
3 1531 2961
4 1652 4806
5 1021 2768
6 1639 2785
7 880 2674
8 2190 4336
9 2317 2840
10 2559 3757
11 2564 1562
12 1204 2520
13 4002 2264
14 2450 2949
15 3671 3765
16 4837 2272
17 423 2488
18 2950 2139
19 3094 176
20 375 3957
21 1691 4658
22 4714 4724
23 141 1133
24 3014 2455
25 4442 2468
26 2938 4908
27 2628 3698
28 1452 3868
29 795 2143
